c Fichier CNF généré
c
p cnf 17 42
-7 -6 0
-12 -3 0
-15 -12 0
-4 -3 0
-13 -12 0
-6 -3 0
-11 -2 0
-16 -12 0
4 13 0
-17 -12 0
7 16 0
-17 -13 0
3 12 0
-4 -2 0
-16 -7 0
8 17 0
-17 -11 0
-7 -3 0
-15 -13 0
-7 -4 0
2 11 0
-3 0
-6 -4 0
-17 -8 0
-17 -16 0
-17 -15 0
-3 -2 0
-16 -15 0
-13 -11 0
-8 -6 0
-7 -2 0
-16 -13 0
-15 -11 0
6 15 0
-8 -7 0
-12 -11 0
-13 -4 0
-16 -11 0
-6 -2 0
-8 -2 0
-15 -6 0
-8 -4 0